nK = 1815;
nT = 6;
nI = 14;
L = 35;
TT = 465;
np = 1;
nc = 3;
b = [34, 31, 52, 43, 52, 23, 22, 62, 47, 22, 39, 28, 63, 69];
d = [127, 136, 136, 138, 117, 92, 54, 118, 136, 50, 60, 56, 149, 123];
m = [2.4, 2, 1.9, 2.5, 1.7, 1.7, 1.9, 1.5, 1.3, 2.3, 2.3, 1.1, 2.3, 2.5];
pt = [0.32, 0.29, 0.25, 0.26, 0.27, 0.25];
st = [14.08, 12.76, 11.25, 12.74, 14.58, 15];
arc = {<1, 0, 1, 1, 0, 0, 0, [1, 1, 1, 1, 1, 1]>, <2, 1, 2, 1, 0, 0, 0, [1, 1, 1, 1, 1, 1]>, <3, 2, 3, 1, 0, 0, 0, [1, 1, 1, 1, 1, 1]>, <4, 3, 4, 1, 0, 0, 0, [1, 1, 1, 1, 1, 1]>, <5, 4, 5, 1, 0, 0, 0, [1, 1, 1, 1, 1, 1]>, <6, 5, 6, 1, 0, 0, 0, [1, 1, 1, 1, 1, 1]>, <7, 6, 7, 1, 0, 0, 0, [1, 1, 1, 1, 1, 1]>, <8, 7, 8, 1, 0, 0, 0, [1, 1, 1, 1, 1, 1]>, <9, 8, 9, 1, 0, 0, 0, [1, 1, 1, 1, 1, 1]>, <10, 9, 10, 1, 0, 0, 0, [1, 1, 1, 1, 1, 1]>, <11, 10, 11, 1, 0, 0, 0, [1, 1, 1, 1, 1, 1]>, <12, 11, 12, 1, 0, 0, 0, [1, 1, 1, 1, 1, 1]>, <13, 12, 13, 1, 0, 0, 0, [1, 1, 1, 1, 1, 1]>, <14, 13, 14, 1, 0, 0, 0, [1, 1, 1, 1, 1, 1]>, <15, 14, 15, 1, 0, 0, 0, [1, 1, 1, 1, 1, 1]>, <16, 15, 16, 1, 0, 0, 0, [1, 1, 1, 1, 1, 1]>, <17, 16, 17, 1, 0, 0, 0, [1, 1, 1, 1, 1, 1]>, <18, 17, 18, 1, 0, 0, 0, [1, 1, 1, 1, 1, 1]>, <19, 18, 19, 1, 0, 0, 0, [1, 1, 1, 1, 1, 1]>, <20, 19, 20, 1, 0, 0, 0, [1, 1, 1, 1, 1, 1]>, <21, 20, 21, 1, 0, 0, 0, [1, 1, 1, 1, 1, 1]>, <22, 21, 22, 1, 0, 0, 0, [1, 1, 1, 1, 1, 1]>, <23, 22, 23, 1, 0, 0, 0, [1, 1, 1, 1, 1, 1]>, <24, 23, 24, 1, 0, 0, 0, [1, 1, 1, 1, 1, 1]>, <25, 24, 25, 1, 0, 0, 0, [1, 1, 1, 1, 1, 1]>, <26, 25, 26, 1, 0, 0, 0, [1, 1, 1, 1, 1, 1]>, <27, 26, 27, 1, 0, 0, 0, [1, 1, 1, 1, 1, 1]>, <28, 27, 28, 1, 0, 0, 0, [1, 1, 1, 1, 1, 1]>, <29, 28, 29, 1, 0, 0, 0, [1, 1, 1, 1, 1, 1]>, <30, 29, 30, 1, 0, 0, 0, [1, 1, 1, 1, 1, 1]>, <31, 30, 31, 1, 0, 0, 0, [1, 1, 1, 1, 1, 1]>, <32, 31, 32, 1, 0, 0, 0, [1, 1, 1, 1, 1, 1]>, <33, 32, 33, 1, 0, 0, 0, [1, 1, 1, 1, 1, 1]>, <34, 33, 34, 1, 0, 0, 0, [1, 1, 1, 1, 1, 1]>, <35, 34, 35, 1, 0, 0, 0, [1, 1, 1, 1, 1, 1]>, <36, 0, 17, 17, 1, 0, 0, [0, 1, 1, 1, 1, 0]>, <37, 1, 18, 17, 1, 0, 0, [0, 1, 1, 1, 1, 0]>, <38, 2, 19, 17, 1, 0, 0, [0, 1, 1, 1, 1, 0]>, <39, 3, 20, 17, 1, 0, 0, [0, 1, 1, 1, 1, 0]>, <40, 4, 21, 17, 1, 0, 0, [0, 1, 1, 1, 1, 0]>, <41, 5, 22, 17, 1, 0, 0, [0, 1, 1, 1, 1, 0]>, <42, 6, 23, 17, 1, 0, 0, [0, 1, 1, 1, 1, 0]>, <43, 9, 26, 17, 1, 0, 0, [0, 1, 1, 1, 1, 0]>, <44, 10, 27, 17, 1, 0, 0, [0, 1, 1, 1, 1, 0]>, <45, 11, 28, 17, 1, 0, 0, [0, 1, 1, 1, 1, 0]>, <46, 12, 29, 17, 1, 0, 0, [0, 1, 1, 1, 1, 0]>, <47, 13, 30, 17, 1, 0, 0, [0, 1, 1, 1, 1, 0]>, <48, 14, 31, 17, 1, 0, 0, [0, 1, 1, 1, 1, 0]>, <49, 15, 32, 17, 1, 0, 0, [0, 1, 1, 1, 1, 0]>, <50, 16, 33, 17, 1, 0, 0, [0, 1, 1, 1, 1, 0]>, <51, 17, 34, 17, 1, 0, 0, [0, 1, 1, 1, 1, 0]>, <52, 18, 35, 17, 1, 0, 0, [0, 1, 1, 1, 1, 0]>, <53, 0, 18, 18, 2, 0, 1, [0, 0, 1, 1, 1, 1]>, <54, 1, 19, 18, 2, 0, 1, [0, 0, 1, 1, 1, 1]>, <55, 2, 20, 18, 2, 0, 1, [0, 0, 1, 1, 1, 1]>, <56, 3, 21, 18, 2, 0, 1, [0, 0, 1, 1, 1, 1]>, <57, 4, 22, 18, 2, 0, 1, [0, 0, 1, 1, 1, 1]>, <58, 5, 23, 18, 2, 0, 1, [0, 0, 1, 1, 1, 1]>, <59, 6, 24, 18, 2, 0, 1, [0, 0, 1, 1, 1, 1]>, <60, 8, 26, 18, 2, 0, 1, [0, 0, 1, 1, 1, 1]>, <61, 9, 27, 18, 2, 0, 1, [0, 0, 1, 1, 1, 1]>, <62, 10, 28, 18, 2, 0, 1, [0, 0, 1, 1, 1, 1]>, <63, 11, 29, 18, 2, 0, 1, [0, 0, 1, 1, 1, 1]>, <64, 12, 30, 18, 2, 0, 1, [0, 0, 1, 1, 1, 1]>, <65, 13, 31, 18, 2, 0, 1, [0, 0, 1, 1, 1, 1]>, <66, 14, 32, 18, 2, 0, 1, [0, 0, 1, 1, 1, 1]>, <67, 15, 33, 18, 2, 0, 1, [0, 0, 1, 1, 1, 1]>, <68, 16, 34, 18, 2, 0, 1, [0, 0, 1, 1, 1, 1]>, <69, 17, 35, 18, 2, 0, 1, [0, 0, 1, 1, 1, 1]>, <70, 0, 19, 19, 3, 1, 0, [1, 0, 0, 1, 1, 1]>, <71, 1, 20, 19, 3, 1, 0, [1, 0, 0, 1, 1, 1]>, <72, 2, 21, 19, 3, 1, 0, [1, 0, 0, 1, 1, 1]>, <73, 3, 22, 19, 3, 1, 0, [1, 0, 0, 1, 1, 1]>, <74, 4, 23, 19, 3, 1, 0, [1, 0, 0, 1, 1, 1]>, <75, 5, 24, 19, 3, 1, 0, [1, 0, 0, 1, 1, 1]>, <76, 6, 25, 19, 3, 1, 0, [1, 0, 0, 1, 1, 1]>, <77, 7, 26, 19, 3, 1, 0, [1, 0, 0, 1, 1, 1]>, <78, 8, 27, 19, 3, 1, 0, [1, 0, 0, 1, 1, 1]>, <79, 9, 28, 19, 3, 1, 0, [1, 0, 0, 1, 1, 1]>, <80, 10, 29, 19, 3, 1, 0, [1, 0, 0, 1, 1, 1]>, <81, 11, 30, 19, 3, 1, 0, [1, 0, 0, 1, 1, 1]>, <82, 12, 31, 19, 3, 1, 0, [1, 0, 0, 1, 1, 1]>, <83, 13, 32, 19, 3, 1, 0, [1, 0, 0, 1, 1, 1]>, <84, 14, 33, 19, 3, 1, 0, [1, 0, 0, 1, 1, 1]>, <85, 15, 34, 19, 3, 1, 0, [1, 0, 0, 1, 1, 1]>, <86, 16, 35, 19, 3, 1, 0, [1, 0, 0, 1, 1, 1]>, <87, 0, 22, 22, 4, 1, 0, [1, 1, 1, 0, 0, 1]>, <88, 1, 23, 22, 4, 1, 0, [1, 1, 1, 0, 0, 1]>, <89, 2, 24, 22, 4, 1, 0, [1, 1, 1, 0, 0, 1]>, <90, 3, 25, 22, 4, 1, 0, [1, 1, 1, 0, 0, 1]>, <91, 4, 26, 22, 4, 1, 0, [1, 1, 1, 0, 0, 1]>, <92, 5, 27, 22, 4, 1, 0, [1, 1, 1, 0, 0, 1]>, <93, 6, 28, 22, 4, 1, 0, [1, 1, 1, 0, 0, 1]>, <94, 7, 29, 22, 4, 1, 0, [1, 1, 1, 0, 0, 1]>, <95, 8, 30, 22, 4, 1, 0, [1, 1, 1, 0, 0, 1]>, <96, 9, 31, 22, 4, 1, 0, [1, 1, 1, 0, 0, 1]>, <97, 10, 32, 22, 4, 1, 0, [1, 1, 1, 0, 0, 1]>, <98, 11, 33, 22, 4, 1, 0, [1, 1, 1, 0, 0, 1]>, <99, 12, 34, 22, 4, 1, 0, [1, 1, 1, 0, 0, 1]>, <100, 13, 35, 22, 4, 1, 0, [1, 1, 1, 0, 0, 1]>, <101, 0, 19, 19, 5, 0, 0, [0, 0, 1, 1, 1, 1]>, <102, 1, 20, 19, 5, 0, 0, [0, 0, 1, 1, 1, 1]>, <103, 2, 21, 19, 5, 0, 0, [0, 0, 1, 1, 1, 1]>, <104, 3, 22, 19, 5, 0, 0, [0, 0, 1, 1, 1, 1]>, <105, 4, 23, 19, 5, 0, 0, [0, 0, 1, 1, 1, 1]>, <106, 5, 24, 19, 5, 0, 0, [0, 0, 1, 1, 1, 1]>, <107, 6, 25, 19, 5, 0, 0, [0, 0, 1, 1, 1, 1]>, <108, 7, 26, 19, 5, 0, 0, [0, 0, 1, 1, 1, 1]>, <109, 8, 27, 19, 5, 0, 0, [0, 0, 1, 1, 1, 1]>, <110, 9, 28, 19, 5, 0, 0, [0, 0, 1, 1, 1, 1]>, <111, 10, 29, 19, 5, 0, 0, [0, 0, 1, 1, 1, 1]>, <112, 11, 30, 19, 5, 0, 0, [0, 0, 1, 1, 1, 1]>, <113, 12, 31, 19, 5, 0, 0, [0, 0, 1, 1, 1, 1]>, <114, 13, 32, 19, 5, 0, 0, [0, 0, 1, 1, 1, 1]>, <115, 14, 33, 19, 5, 0, 0, [0, 0, 1, 1, 1, 1]>, <116, 15, 34, 19, 5, 0, 0, [0, 0, 1, 1, 1, 1]>, <117, 16, 35, 19, 5, 0, 0, [0, 0, 1, 1, 1, 1]>, <118, 0, 18, 18, 6, 0, 1, [1, 1, 1, 0, 0, 1]>, <119, 1, 19, 18, 6, 0, 1, [1, 1, 1, 0, 0, 1]>, <120, 2, 20, 18, 6, 0, 1, [1, 1, 1, 0, 0, 1]>, <121, 3, 21, 18, 6, 0, 1, [1, 1, 1, 0, 0, 1]>, <122, 4, 22, 18, 6, 0, 1, [1, 1, 1, 0, 0, 1]>, <123, 5, 23, 18, 6, 0, 1, [1, 1, 1, 0, 0, 1]>, <124, 6, 24, 18, 6, 0, 1, [1, 1, 1, 0, 0, 1]>, <125, 8, 26, 18, 6, 0, 1, [1, 1, 1, 0, 0, 1]>, <126, 9, 27, 18, 6, 0, 1, [1, 1, 1, 0, 0, 1]>, <127, 10, 28, 18, 6, 0, 1, [1, 1, 1, 0, 0, 1]>, <128, 11, 29, 18, 6, 0, 1, [1, 1, 1, 0, 0, 1]>, <129, 12, 30, 18, 6, 0, 1, [1, 1, 1, 0, 0, 1]>, <130, 13, 31, 18, 6, 0, 1, [1, 1, 1, 0, 0, 1]>, <131, 14, 32, 18, 6, 0, 1, [1, 1, 1, 0, 0, 1]>, <132, 15, 33, 18, 6, 0, 1, [1, 1, 1, 0, 0, 1]>, <133, 16, 34, 18, 6, 0, 1, [1, 1, 1, 0, 0, 1]>, <134, 17, 35, 18, 6, 0, 1, [1, 1, 1, 0, 0, 1]>, <135, 0, 17, 17, 7, 1, 0, [1, 1, 1, 0, 0, 1]>, <136, 1, 18, 17, 7, 1, 0, [1, 1, 1, 0, 0, 1]>, <137, 2, 19, 17, 7, 1, 0, [1, 1, 1, 0, 0, 1]>, <138, 3, 20, 17, 7, 1, 0, [1, 1, 1, 0, 0, 1]>, <139, 4, 21, 17, 7, 1, 0, [1, 1, 1, 0, 0, 1]>, <140, 5, 22, 17, 7, 1, 0, [1, 1, 1, 0, 0, 1]>, <141, 6, 23, 17, 7, 1, 0, [1, 1, 1, 0, 0, 1]>, <142, 9, 26, 17, 7, 1, 0, [1, 1, 1, 0, 0, 1]>, <143, 10, 27, 17, 7, 1, 0, [1, 1, 1, 0, 0, 1]>, <144, 11, 28, 17, 7, 1, 0, [1, 1, 1, 0, 0, 1]>, <145, 12, 29, 17, 7, 1, 0, [1, 1, 1, 0, 0, 1]>, <146, 13, 30, 17, 7, 1, 0, [1, 1, 1, 0, 0, 1]>, <147, 14, 31, 17, 7, 1, 0, [1, 1, 1, 0, 0, 1]>, <148, 15, 32, 17, 7, 1, 0, [1, 1, 1, 0, 0, 1]>, <149, 16, 33, 17, 7, 1, 0, [1, 1, 1, 0, 0, 1]>, <150, 17, 34, 17, 7, 1, 0, [1, 1, 1, 0, 0, 1]>, <151, 18, 35, 17, 7, 1, 0, [1, 1, 1, 0, 0, 1]>, <152, 0, 17, 17, 8, 0, 0, [1, 1, 1, 1, 0, 0]>, <153, 1, 18, 17, 8, 0, 0, [1, 1, 1, 1, 0, 0]>, <154, 2, 19, 17, 8, 0, 0, [1, 1, 1, 1, 0, 0]>, <155, 3, 20, 17, 8, 0, 0, [1, 1, 1, 1, 0, 0]>, <156, 4, 21, 17, 8, 0, 0, [1, 1, 1, 1, 0, 0]>, <157, 5, 22, 17, 8, 0, 0, [1, 1, 1, 1, 0, 0]>, <158, 6, 23, 17, 8, 0, 0, [1, 1, 1, 1, 0, 0]>, <159, 9, 26, 17, 8, 0, 0, [1, 1, 1, 1, 0, 0]>, <160, 10, 27, 17, 8, 0, 0, [1, 1, 1, 1, 0, 0]>, <161, 11, 28, 17, 8, 0, 0, [1, 1, 1, 1, 0, 0]>, <162, 12, 29, 17, 8, 0, 0, [1, 1, 1, 1, 0, 0]>, <163, 13, 30, 17, 8, 0, 0, [1, 1, 1, 1, 0, 0]>, <164, 14, 31, 17, 8, 0, 0, [1, 1, 1, 1, 0, 0]>, <165, 15, 32, 17, 8, 0, 0, [1, 1, 1, 1, 0, 0]>, <166, 16, 33, 17, 8, 0, 0, [1, 1, 1, 1, 0, 0]>, <167, 17, 34, 17, 8, 0, 0, [1, 1, 1, 1, 0, 0]>, <168, 18, 35, 17, 8, 0, 0, [1, 1, 1, 1, 0, 0]>, <169, 1, 17, 16, 9, 0, 1, [1, 1, 1, 0, 0, 1]>, <170, 2, 18, 16, 9, 0, 1, [1, 1, 1, 0, 0, 1]>, <171, 3, 19, 16, 9, 0, 1, [1, 1, 1, 0, 0, 1]>, <172, 4, 20, 16, 9, 0, 1, [1, 1, 1, 0, 0, 1]>, <173, 5, 21, 16, 9, 0, 1, [1, 1, 1, 0, 0, 1]>, <174, 6, 22, 16, 9, 0, 1, [1, 1, 1, 0, 0, 1]>, <175, 10, 26, 16, 9, 0, 1, [1, 1, 1, 0, 0, 1]>, <176, 11, 27, 16, 9, 0, 1, [1, 1, 1, 0, 0, 1]>, <177, 12, 28, 16, 9, 0, 1, [1, 1, 1, 0, 0, 1]>, <178, 13, 29, 16, 9, 0, 1, [1, 1, 1, 0, 0, 1]>, <179, 14, 30, 16, 9, 0, 1, [1, 1, 1, 0, 0, 1]>, <180, 15, 31, 16, 9, 0, 1, [1, 1, 1, 0, 0, 1]>, <181, 16, 32, 16, 9, 0, 1, [1, 1, 1, 0, 0, 1]>, <182, 17, 33, 16, 9, 0, 1, [1, 1, 1, 0, 0, 1]>, <183, 18, 34, 16, 9, 0, 1, [1, 1, 1, 0, 0, 1]>, <184, 19, 35, 16, 9, 0, 1, [1, 1, 1, 0, 0, 1]>, <185, 0, 20, 20, 10, 0, 0, [0, 1, 1, 1, 1, 0]>, <186, 1, 21, 20, 10, 0, 0, [0, 1, 1, 1, 1, 0]>, <187, 2, 22, 20, 10, 0, 0, [0, 1, 1, 1, 1, 0]>, <188, 3, 23, 20, 10, 0, 0, [0, 1, 1, 1, 1, 0]>, <189, 4, 24, 20, 10, 0, 0, [0, 1, 1, 1, 1, 0]>, <190, 5, 25, 20, 10, 0, 0, [0, 1, 1, 1, 1, 0]>, <191, 6, 26, 20, 10, 0, 0, [0, 1, 1, 1, 1, 0]>, <192, 7, 27, 20, 10, 0, 0, [0, 1, 1, 1, 1, 0]>, <193, 8, 28, 20, 10, 0, 0, [0, 1, 1, 1, 1, 0]>, <194, 9, 29, 20, 10, 0, 0, [0, 1, 1, 1, 1, 0]>, <195, 10, 30, 20, 10, 0, 0, [0, 1, 1, 1, 1, 0]>, <196, 11, 31, 20, 10, 0, 0, [0, 1, 1, 1, 1, 0]>, <197, 12, 32, 20, 10, 0, 0, [0, 1, 1, 1, 1, 0]>, <198, 13, 33, 20, 10, 0, 0, [0, 1, 1, 1, 1, 0]>, <199, 14, 34, 20, 10, 0, 0, [0, 1, 1, 1, 1, 0]>, <200, 15, 35, 20, 10, 0, 0, [0, 1, 1, 1, 1, 0]>, <201, 0, 22, 22, 11, 0, 0, [1, 1, 1, 0, 0, 1]>, <202, 1, 23, 22, 11, 0, 0, [1, 1, 1, 0, 0, 1]>, <203, 2, 24, 22, 11, 0, 0, [1, 1, 1, 0, 0, 1]>, <204, 3, 25, 22, 11, 0, 0, [1, 1, 1, 0, 0, 1]>, <205, 4, 26, 22, 11, 0, 0, [1, 1, 1, 0, 0, 1]>, <206, 5, 27, 22, 11, 0, 0, [1, 1, 1, 0, 0, 1]>, <207, 6, 28, 22, 11, 0, 0, [1, 1, 1, 0, 0, 1]>, <208, 7, 29, 22, 11, 0, 0, [1, 1, 1, 0, 0, 1]>, <209, 8, 30, 22, 11, 0, 0, [1, 1, 1, 0, 0, 1]>, <210, 9, 31, 22, 11, 0, 0, [1, 1, 1, 0, 0, 1]>, <211, 10, 32, 22, 11, 0, 0, [1, 1, 1, 0, 0, 1]>, <212, 11, 33, 22, 11, 0, 0, [1, 1, 1, 0, 0, 1]>, <213, 12, 34, 22, 11, 0, 0, [1, 1, 1, 0, 0, 1]>, <214, 13, 35, 22, 11, 0, 0, [1, 1, 1, 0, 0, 1]>, <215, 0, 20, 20, 12, 0, 0, [1, 0, 0, 1, 1, 1]>, <216, 1, 21, 20, 12, 0, 0, [1, 0, 0, 1, 1, 1]>, <217, 2, 22, 20, 12, 0, 0, [1, 0, 0, 1, 1, 1]>, <218, 3, 23, 20, 12, 0, 0, [1, 0, 0, 1, 1, 1]>, <219, 4, 24, 20, 12, 0, 0, [1, 0, 0, 1, 1, 1]>, <220, 5, 25, 20, 12, 0, 0, [1, 0, 0, 1, 1, 1]>, <221, 6, 26, 20, 12, 0, 0, [1, 0, 0, 1, 1, 1]>, <222, 7, 27, 20, 12, 0, 0, [1, 0, 0, 1, 1, 1]>, <223, 8, 28, 20, 12, 0, 0, [1, 0, 0, 1, 1, 1]>, <224, 9, 29, 20, 12, 0, 0, [1, 0, 0, 1, 1, 1]>, <225, 10, 30, 20, 12, 0, 0, [1, 0, 0, 1, 1, 1]>, <226, 11, 31, 20, 12, 0, 0, [1, 0, 0, 1, 1, 1]>, <227, 12, 32, 20, 12, 0, 0, [1, 0, 0, 1, 1, 1]>, <228, 13, 33, 20, 12, 0, 0, [1, 0, 0, 1, 1, 1]>, <229, 14, 34, 20, 12, 0, 0, [1, 0, 0, 1, 1, 1]>, <230, 15, 35, 20, 12, 0, 0, [1, 0, 0, 1, 1, 1]>, <231, 0, 17, 17, 13, 0, 1, [1, 1, 0, 0, 1, 1]>, <232, 1, 18, 17, 13, 0, 1, [1, 1, 0, 0, 1, 1]>, <233, 2, 19, 17, 13, 0, 1, [1, 1, 0, 0, 1, 1]>, <234, 3, 20, 17, 13, 0, 1, [1, 1, 0, 0, 1, 1]>, <235, 4, 21, 17, 13, 0, 1, [1, 1, 0, 0, 1, 1]>, <236, 5, 22, 17, 13, 0, 1, [1, 1, 0, 0, 1, 1]>, <237, 6, 23, 17, 13, 0, 1, [1, 1, 0, 0, 1, 1]>, <238, 9, 26, 17, 13, 0, 1, [1, 1, 0, 0, 1, 1]>, <239, 10, 27, 17, 13, 0, 1, [1, 1, 0, 0, 1, 1]>, <240, 11, 28, 17, 13, 0, 1, [1, 1, 0, 0, 1, 1]>, <241, 12, 29, 17, 13, 0, 1, [1, 1, 0, 0, 1, 1]>, <242, 13, 30, 17, 13, 0, 1, [1, 1, 0, 0, 1, 1]>, <243, 14, 31, 17, 13, 0, 1, [1, 1, 0, 0, 1, 1]>, <244, 15, 32, 17, 13, 0, 1, [1, 1, 0, 0, 1, 1]>, <245, 16, 33, 17, 13, 0, 1, [1, 1, 0, 0, 1, 1]>, <246, 17, 34, 17, 13, 0, 1, [1, 1, 0, 0, 1, 1]>, <247, 18, 35, 17, 13, 0, 1, [1, 1, 0, 0, 1, 1]>, <248, 0, 17, 17, 14, 0, 0, [0, 0, 1, 1, 1, 1]>, <249, 1, 18, 17, 14, 0, 0, [0, 0, 1, 1, 1, 1]>, <250, 2, 19, 17, 14, 0, 0, [0, 0, 1, 1, 1, 1]>, <251, 3, 20, 17, 14, 0, 0, [0, 0, 1, 1, 1, 1]>, <252, 4, 21, 17, 14, 0, 0, [0, 0, 1, 1, 1, 1]>, <253, 5, 22, 17, 14, 0, 0, [0, 0, 1, 1, 1, 1]>, <254, 6, 23, 17, 14, 0, 0, [0, 0, 1, 1, 1, 1]>, <255, 9, 26, 17, 14, 0, 0, [0, 0, 1, 1, 1, 1]>, <256, 10, 27, 17, 14, 0, 0, [0, 0, 1, 1, 1, 1]>, <257, 11, 28, 17, 14, 0, 0, [0, 0, 1, 1, 1, 1]>, <258, 12, 29, 17, 14, 0, 0, [0, 0, 1, 1, 1, 1]>, <259, 13, 30, 17, 14, 0, 0, [0, 0, 1, 1, 1, 1]>, <260, 14, 31, 17, 14, 0, 0, [0, 0, 1, 1, 1, 1]>, <261, 15, 32, 17, 14, 0, 0, [0, 0, 1, 1, 1, 1]>, <262, 16, 33, 17, 14, 0, 0, [0, 0, 1, 1, 1, 1]>, <263, 17, 34, 17, 14, 0, 0, [0, 0, 1, 1, 1, 1]>, <264, 18, 35, 17, 14, 0, 0, [0, 0, 1, 1, 1, 1]>};
